n = 20
m = 15
c = 5

problem 1
---------
0  0  0  0  0  0  0  0  0  0  0  0  0  0  1  1  0  0  1  0  
0  0  0  0  1  1  0  1  0  0  0  0  0  1  0  0  0  1  1  0  
0  0  1  0  0  0  1  1  0  0  0  0  1  0  0  0  1  0  0  0  
0  0  0  0  0  0  0  1  0  0  1  1  0  0  1  0  0  0  0  0  
0  0  0  0  0  0  0  1  1  1  1  0  1  0  0  0  1  1  0  1  
1  1  1  1  0  1  0  0  1  0  0  0  0  0  0  0  0  0  0  0  
0  0  0  1  1  0  0  0  0  1  1  0  0  0  0  0  0  0  0  0  
1  0  0  0  0  0  0  1  0  0  1  0  0  0  0  0  0  1  1  0  
0  0  0  0  0  0  0  0  0  0  0  1  1  0  0  0  0  0  0  0  
1  0  0  0  0  0  0  0  1  0  0  0  0  0  1  0  0  0  1  1  
0  1  0  0  0  0  0  0  0  0  0  0  0  0  0  0  1  1  0  0  
0  0  1  0  0  0  0  0  0  0  0  0  1  0  1  0  1  0  0  1  
0  1  0  1  0  0  1  0  0  0  0  0  0  0  0  0  0  0  1  1  
1  0  0  0  0  1  0  0  1  0  0  1  0  0  1  0  0  1  0  1  
0  0  0  0  0  0  0  0  0  1  0  0  1  1  0  1  0  0  0  0  
problem 2
---------
0  0  0  0  0  0  0  0  0  0  0  0  1  0  0  0  0  1  0  1  
0  0  1  1  0  0  0  0  1  0  0  1  0  0  0  0  0  0  0  1  
1  0  0  1  0  0  1  1  0  1  0  0  0  0  0  1  0  0  1  0  
0  1  0  0  0  1  0  0  0  0  0  1  0  1  0  0  1  0  1  0  
1  1  0  0  0  0  0  1  0  0  1  0  1  0  0  0  1  0  0  0  
0  0  1  0  0  0  1  0  0  0  0  0  0  0  0  0  1  0  0  0  
0  0  0  0  1  1  1  0  1  0  1  0  0  0  0  0  0  0  0  0  
0  1  0  0  0  1  0  1  0  0  0  0  0  0  0  0  0  1  0  0  
0  0  0  0  0  0  0  0  0  0  1  0  0  1  0  1  0  0  0  0  
0  0  0  0  1  0  0  1  0  0  0  0  0  1  1  1  0  0  0  0  
1  0  0  1  0  0  0  0  0  0  0  1  0  0  0  0  0  0  0  0  
0  0  0  1  0  1  1  0  0  0  0  0  1  0  1  0  0  0  0  0  
0  0  0  1  0  0  0  0  0  0  1  1  0  0  0  1  0  0  1  0  
0  0  0  0  0  0  0  0  0  1  0  0  1  0  0  1  0  0  0  0  
0  0  0  0  0  0  0  0  1  1  0  0  0  0  0  0  0  0  0  0 
problem 3
---------
0  1  0  0  0  1  0  0  0  0  0  0  0  0  0  0  1  0  0  0  
0  0  1  0  0  0  0  0  0  0  0  1  0  0  0  0  0  0  1  0  
0  0  0  0  1  0  0  0  1  0  0  0  1  0  0  0  0  0  0  0  
1  0  0  0  0  1  1  0  0  1  1  0  1  1  0  0  0  1  0  0  
0  0  1  0  0  0  1  1  0  0  0  0  1  0  0  1  1  0  0  1  
1  0  0  0  0  0  0  0  0  0  0  1  0  0  1  0  0  0  0  1  
0  0  1  0  0  0  0  1  0  0  0  0  0  0  0  0  0  1  0  0  
0  0  1  1  0  0  0  1  0  0  1  1  1  0  0  0  1  1  1  1  
0  0  0  1  0  0  0  0  0  1  0  0  0  0  0  0  0  0  1  0  
0  0  0  1  0  0  1  0  1  1  1  0  1  0  0  1  0  0  0  0  
0  1  1  0  1  0  0  0  0  1  0  0  0  1  1  0  0  0  1  0  
1  0  0  0  1  0  0  1  1  0  0  1  0  0  0  1  0  0  0  1  
0  0  0  0  0  0  1  0  0  1  0  1  0  0  0  0  0  1  0  0  
0  0  0  0  0  0  0  0  0  0  0  0  0  1  0  1  0  0  0  1  
0  0  0  0  1  0  0  0  0  0  1  0  0  0  0  1  0  1  1  0  
problem 4
---------
0  0  0  0  0  0  0  0  1  1  0  0  0  0  0  0  0  0  1  0  
0  0  0  0  0  1  0  0  0  0  0  0  1  0  1  1  1  1  0  1  
0  1  0  0  0  0  0  0  0  1  0  0  0  0  0  0  0  1  1  1  
0  0  1  0  1  0  0  1  0  0  0  0  0  0  0  0  1  0  0  0  
0  0  0  0  0  1  0  1  0  1  0  0  1  0  0  0  1  0  0  0  
0  0  0  1  0  0  0  0  0  0  1  0  0  0  0  0  0  0  0  0  
0  0  0  0  0  1  0  0  0  0  0  0  0  1  0  0  0  1  0  0  
0  1  0  1  0  0  0  0  0  0  0  0  0  1  0  0  1  0  0  1  
0  0  0  1  1  0  0  0  1  0  0  0  0  0  1  0  0  0  0  0  
1  0  1  0  0  0  0  0  0  0  0  1  0  0  0  1  0  0  0  0  
0  0  0  0  0  0  1  0  0  0  1  1  1  0  0  0  1  0  1  0  
1  1  0  0  0  0  0  0  0  0  1  0  0  0  0  0  0  0  0  0  
0  1  0  0  0  1  0  0  0  1  0  0  0  0  0  0  0  0  0  0  
0  1  0  1  0  0  1  1  0  0  0  0  0  0  0  0  0  0  0  1  
0  0  0  1  1  1  0  0  0  0  0  0  1  0  0  0  0  0  0  1 
problem 5
---------
0  1  0  0  0  0  1  0  1  1  1  1  0  0  1  0  1  0  0  1  
0  0  0  1  0  1  0  0  1  0  0  0  0  0  0  1  0  0  0  0  
1  0  0  0  0  0  0  0  0  0  0  0  1  0  0  0  0  0  0  1  
0  1  0  0  0  0  0  0  0  0  0  0  1  0  0  0  1  0  0  0  
0  0  1  0  1  1  0  0  0  1  0  1  0  0  0  0  0  0  1  0  
1  0  0  0  1  0  0  0  0  0  0  1  0  1  0  0  0  0  0  0  
0  0  0  0  1  1  0  0  0  0  1  0  0  0  0  1  0  0  0  0  
0  1  1  0  0  1  0  0  0  0  1  0  0  0  0  0  0  1  0  0  
0  0  0  1  0  0  1  0  0  1  0  0  0  1  0  1  0  0  0  0  
1  0  1  0  1  1  1  0  1  0  0  0  1  1  0  0  0  0  0  0  
1  0  0  1  0  0  1  0  0  0  0  0  0  1  0  0  1  1  1  0  
1  0  0  0  1  0  0  1  0  0  0  1  0  1  1  0  0  0  1  0  
0  1  0  0  0  0  0  1  0  0  1  0  0  0  0  0  0  0  0  0  
0  0  0  0  0  0  1  0  0  0  0  0  0  0  1  0  0  0  0  1  
0  0  1  0  0  0  0  0  0  0  0  1  0  0  0  1  0  0  0  1
problem 6
---------
1  1  0  1  0  1  0  0  0  0  0  0  1  0  1  0  0  0  0  0  
0  1  1  1  1  0  0  0  1  0  1  0  0  0  0  1  0  1  1  1  
0  0  1  0  1  0  0  0  0  1  0  0  1  0  0  0  0  0  0  1  
0  0  0  0  1  0  1  0  0  0  0  0  0  0  0  1  1  0  0  0  
0  0  0  0  0  1  1  1  1  0  0  0  0  0  0  1  0  0  0  0  
1  0  0  0  0  0  0  1  0  0  0  1  1  0  0  1  0  1  1  0  
0  0  1  0  0  1  1  0  1  0  0  1  0  0  0  0  0  1  1  0  
0  1  0  1  0  0  1  0  1  0  0  0  1  0  0  0  0  0  0  1  
0  0  0  1  0  1  0  0  0  1  0  1  0  0  1  0  0  0  0  1  
0  1  0  0  0  1  0  1  0  1  1  0  0  0  0  0  0  0  0  0  
0  0  0  0  0  0  0  1  1  1  1  0  0  1  0  0  0  0  0  0  
0  0  0  0  0  0  0  0  0  0  1  0  0  0  1  0  0  0  1  1  
0  0  0  1  1  0  1  0  0  0  0  0  0  0  0  0  0  1  0  0  
1  0  0  0  0  0  0  0  0  0  0  1  0  1  0  1  1  1  0  0  
1  1  0  0  1  0  0  0  0  1  0  0  0  0  0  0  1  0  1  0  
problem 7
---------
0  0  1  0  0  1  0  0  0  0  1  0  1  0  0  1  0  0  0  0  
1  0  1  1  0  0  0  1  1  0  0  0  0  0  0  0  1  0  0  0  
0  0  0  0  0  0  1  0  1  0  0  0  0  0  0  0  0  1  0  1  
0  0  0  0  0  0  0  0  0  1  0  0  0  0  0  0  0  0  0  0  
0  0  0  1  0  0  0  0  0  0  0  0  0  0  1  0  0  1  0  0  
0  0  0  0  0  0  0  0  0  0  1  1  1  0  0  0  0  0  0  0  
0  0  0  0  0  0  1  0  0  0  1  0  0  1  0  0  1  0  0  0  
0  1  0  0  0  0  1  1  0  0  0  1  0  0  0  0  0  0  1  0  
0  0  0  0  1  0  1  0  0  0  0  0  1  0  0  1  0  0  1  0  
0  0  0  0  0  0  0  1  0  1  1  0  0  0  1  1  0  0  1  1  
1  1  0  0  0  1  0  0  0  0  0  1  0  0  0  0  0  0  0  0  
0  1  0  0  0  0  1  0  0  0  1  0  0  0  0  1  0  0  0  0  
0  0  0  0  0  0  0  0  0  1  0  0  0  0  1  0  0  0  0  0  
1  0  0  1  1  0  0  1  1  1  0  0  0  0  0  0  0  1  0  0  
1  0  0  0  0  0  0  0  0  1  0  0  0  1  0  1  0  1  0  1
problem 8
---------
0  0  0  0  1  0  0  1  0  0  0  0  0  0  0  0  0  0  1  1  
0  0  0  0  0  0  0  0  0  0  0  1  1  0  1  0  1  1  0  0  
0  1  0  1  0  0  0  0  0  0  1  0  0  0  0  1  1  0  0  1  
0  0  1  1  0  0  1  1  0  0  0  0  0  0  1  0  0  0  0  0  
0  1  1  0  0  0  0  0  0  1  0  0  0  1  1  0  0  1  1  0  
1  0  0  1  1  0  0  0  0  0  0  0  0  1  0  0  0  0  0  0  
0  0  0  0  0  1  0  0  0  0  0  0  0  0  0  0  0  0  1  0  
1  0  1  0  0  1  0  0  0  0  0  0  0  0  0  0  0  1  0  0  
0  0  0  0  0  0  1  0  1  0  0  1  1  0  0  0  0  0  1  0  
0  0  0  1  0  1  0  1  0  0  1  1  0  0  1  0  0  0  0  0  
0  0  0  0  0  0  0  0  0  1  1  1  1  0  0  0  0  0  0  0  
1  0  1  0  0  1  0  1  1  1  1  0  0  0  0  0  0  0  0  0  
0  0  0  0  0  0  0  0  1  0  0  0  1  0  1  1  0  0  0  0  
0  0  0  0  0  1  0  0  1  0  0  0  0  0  0  0  1  0  0  0  
0  0  1  0  0  0  0  1  0  1  0  1  0  1  0  0  0  0  0  0  
problem 9
---------
1  0  0  0  0  0  1  1  1  0  1  1  0  0  0  0  0  0  1  0  
0  0  0  0  0  0  0  0  0  0  1  0  1  0  0  0  0  1  0  0  
0  1  0  1  0  1  0  0  1  0  0  0  0  0  0  0  0  0  0  1  
0  1  1  0  0  0  0  1  1  0  0  0  0  0  1  0  1  1  0  0  
0  0  1  0  0  1  0  0  0  0  1  1  0  1  0  0  0  0  1  1  
0  1  0  0  0  0  1  0  0  0  0  0  1  0  0  1  0  0  0  0  
0  0  0  0  1  0  0  0  0  0  0  0  0  0  0  0  1  0  0  0  
0  0  0  1  1  0  0  0  0  0  0  0  0  0  0  0  0  0  0  0  
0  0  0  0  0  0  1  0  1  0  0  0  0  0  1  0  0  1  0  0  
0  0  0  0  0  1  1  0  0  1  0  1  0  0  0  0  0  0  0  0  
0  0  0  0  0  0  0  0  1  0  0  0  0  0  1  0  0  1  1  0  
1  1  1  0  0  1  0  0  0  0  0  0  1  1  1  0  0  0  0  0  
0  0  0  0  0  0  1  0  0  0  0  1  0  0  0  0  0  0  0  0  
0  1  0  0  0  1  0  0  0  0  0  0  0  1  0  0  0  0  1  0  
0  0  0  1  0  0  0  1  0  1  0  0  0  1  1  1  0  0  0  1  
problem 10
---------
0  1  0  0  0  0  0  1  0  0  0  0  1  1  0  0  0  0  0  1  
1  0  0  0  0  0  1  0  0  0  0  0  0  0  0  0  1  0  0  0  
0  0  0  0  1  0  0  1  0  0  1  0  0  0  0  1  0  0  0  0  
0  0  0  1  0  0  0  0  1  0  0  0  0  0  0  0  0  0  0  0  
0  0  1  1  0  0  0  0  1  0  0  1  0  0  0  0  1  0  1  0  
0  0  0  0  0  0  0  0  0  0  0  1  1  0  1  1  1  0  0  1  
0  0  1  1  0  0  0  0  0  0  0  0  1  0  1  0  1  1  0  0  
0  1  1  0  1  0  0  0  0  0  0  0  0  0  0  0  0  0  1  0  
0  0  0  0  0  1  0  0  0  0  1  0  1  0  0  0  0  0  0  0  
0  1  0  1  0  1  0  0  1  1  0  0  0  1  1  0  0  0  1  0  
1  0  0  0  0  1  0  0  0  0  0  0  0  0  0  1  0  0  0  0  
0  0  0  0  0  1  0  1  0  0  0  0  0  0  1  0  0  0  0  1  
0  0  1  1  1  0  0  0  0  1  0  0  0  0  1  1  0  0  1  0  
0  0  0  0  1  0  1  0  1  1  0  1  0  1  0  0  0  0  0  0  
0  1  0  0  1  0  0  0  0  0  0  0  0  0  0  0  0  1  0  0  